p tw 57 6841 2 
1 3 
1 4 
1 5 
1 6 
1 7 
1 8 
1 9 
1 10 
1 11 
1 12 
1 13 
1 14 
1 15 
1 16 
1 17 
1 18 
1 19 
1 20 
1 21 
1 22 
1 23 
1 24 
1 25 
2 3 
2 4 
2 5 
2 6 
2 7 
2 8 
2 9 
2 10 
2 13 
2 18 
2 21 
2 26 
2 27 
2 28 
2 29 
2 30 
2 31 
2 33 
2 37 
2 41 
2 42 
2 43 
2 44 
3 4 
3 5 
3 6 
3 7 
3 8 
3 9 
3 11 
3 12 
3 19 
3 24 
3 26 
3 29 
3 32 
3 33 
3 34 
3 35 
3 36 
3 43 
3 46 
3 48 
3 51 
3 53 
4 5 
4 6 
4 7 
4 8 
4 9 
4 10 
4 12 
4 20 
4 25 
4 27 
4 32 
4 34 
4 37 
4 38 
4 39 
4 40 
4 43 
4 47 
4 52 
4 54 
4 57 
5 6 
5 7 
5 8 
5 9 
5 14 
5 15 
5 22 
5 23 
5 26 
5 27 
5 34 
5 38 
5 41 
5 42 
5 45 
5 46 
5 47 
5 48 
5 49 
5 50 
6 7 
6 8 
6 9 
6 16 
6 17 
6 20 
6 21 
6 28 
6 31 
6 32 
6 35 
6 42 
6 45 
6 46 
6 49 
6 51 
6 52 
6 56 
6 57 
7 8 
7 9 
7 14 
7 17 
7 23 
7 24 
7 29 
7 30 
7 35 
7 36 
7 37 
7 38 
7 44 
7 50 
7 52 
7 54 
7 55 
7 56 
8 9 
8 11 
8 15 
8 18 
8 25 
8 31 
8 36 
8 39 
8 40 
8 41 
8 44 
8 45 
8 49 
8 51 
8 53 
8 54 
8 55 
9 13 
9 16 
9 19 
9 22 
9 28 
9 30 
9 33 
9 39 
9 40 
9 47 
9 48 
9 50 
9 53 
9 55 
9 56 
9 57 
10 11 
10 12 
10 13 
10 14 
10 15 
10 16 
10 17 
10 18 
10 25 
10 26 
10 27 
10 28 
10 29 
10 30 
10 31 
10 34 
10 43 
10 47 
10 52 
10 54 
10 57 
11 12 
11 13 
11 14 
11 15 
11 16 
11 17 
11 18 
11 19 
11 26 
11 32 
11 33 
11 34 
11 35 
11 36 
11 39 
11 44 
11 45 
11 49 
11 53 
11 54 
12 13 
12 14 
12 15 
12 16 
12 17 
12 20 
12 24 
12 27 
12 29 
12 32 
12 37 
12 38 
12 39 
12 40 
12 43 
12 46 
12 48 
12 51 
12 53 
13 14 
13 15 
13 16 
13 17 
13 19 
13 21 
13 28 
13 33 
13 37 
13 40 
13 41 
13 42 
13 43 
13 44 
13 47 
13 50 
13 53 
13 56 
14 15 
14 16 
14 17 
14 22 
14 23 
14 26 
14 29 
14 35 
14 37 
14 38 
14 41 
14 45 
14 46 
14 47 
14 54 
14 55 
14 56 
15 16 
15 17 
15 23 
15 25 
15 27 
15 31 
15 34 
15 36 
15 40 
15 41 
15 42 
15 48 
15 49 
15 50 
15 51 
15 55 
16 17 
16 20 
16 22 
16 28 
16 30 
16 33 
16 35 
16 39 
16 42 
16 45 
16 48 
16 51 
16 52 
16 55 
16 57 
17 21 
17 24 
17 30 
17 31 
17 32 
17 36 
17 38 
17 44 
17 46 
17 49 
17 50 
17 52 
17 56 
17 57 
18 19 
18 20 
18 21 
18 22 
18 23 
18 24 
18 25 
18 26 
18 27 
18 28 
18 29 
18 30 
18 31 
18 39 
18 44 
18 45 
18 49 
18 53 
18 54 
19 20 
19 21 
19 22 
19 23 
19 24 
19 25 
19 26 
19 28 
19 32 
19 33 
19 34 
19 35 
19 36 
19 40 
19 47 
19 50 
19 53 
19 56 
20 21 
20 22 
20 23 
20 24 
20 25 
20 27 
20 28 
20 32 
20 35 
20 37 
20 38 
20 39 
20 40 
20 42 
20 45 
20 51 
20 52 
21 22 
21 23 
21 24 
21 25 
21 31 
21 32 
21 33 
21 37 
21 41 
21 42 
21 43 
21 44 
21 46 
21 49 
21 56 
21 57 
22 23 
22 24 
22 25 
22 26 
22 30 
22 33 
22 38 
22 39 
22 41 
22 45 
22 46 
22 47 
22 48 
22 55 
22 57 
23 24 
23 25 
23 27 
23 29 
23 34 
23 35 
23 37 
23 42 
23 48 
23 49 
23 50 
23 54 
23 55 
23 56 
24 25 
24 29 
24 30 
24 36 
24 38 
24 43 
24 44 
24 46 
24 48 
24 50 
24 51 
24 52 
24 53 
25 31 
25 34 
25 36 
25 40 
25 41 
25 43 
25 47 
25 51 
25 52 
25 54 
25 55 
25 57 
26 27 
26 28 
26 29 
26 30 
26 31 
26 32 
26 33 
26 34 
26 35 
26 36 
26 38 
26 41 
26 45 
26 46 
26 47 
27 28 
27 29 
27 30 
27 31 
27 32 
27 34 
27 37 
27 38 
27 39 
27 40 
27 42 
27 48 
27 49 
27 50 
28 29 
28 30 
28 31 
28 35 
28 40 
28 42 
28 45 
28 47 
28 50 
28 51 
28 52 
28 53 
28 56 
29 30 
29 31 
29 35 
29 37 
29 43 
29 46 
29 48 
29 51 
29 53 
29 54 
29 55 
29 56 
30 31 
30 33 
30 36 
30 38 
30 39 
30 44 
30 48 
30 50 
30 52 
30 55 
30 57 
31 32 
31 36 
31 40 
31 41 
31 46 
31 49 
31 51 
31 55 
31 56 
31 57 
32 33 
32 34 
32 35 
32 36 
32 37 
32 38 
32 39 
32 40 
32 46 
32 49 
32 56 
32 57 
33 34 
33 35 
33 36 
33 37 
33 39 
33 41 
33 42 
33 43 
33 44 
33 48 
33 55 
33 57 
34 35 
34 36 
34 42 
34 43 
34 47 
34 48 
34 49 
34 50 
34 52 
34 54 
34 57 
35 36 
35 37 
35 42 
35 45 
35 51 
35 52 
35 54 
35 55 
35 56 
36 38 
36 40 
36 41 
36 44 
36 50 
36 51 
36 52 
36 55 
37 38 
37 39 
37 40 
37 41 
37 42 
37 43 
37 44 
37 54 
37 55 
37 56 
38 39 
38 40 
38 41 
38 44 
38 45 
38 46 
38 47 
38 50 
38 52 
39 40 
39 44 
39 45 
39 48 
39 49 
39 53 
39 54 
39 55 
39 57 
40 41 
40 47 
40 50 
40 51 
40 53 
40 55 
40 56 
41 42 
41 43 
41 44 
41 45 
41 46 
41 47 
41 51 
41 55 
42 43 
42 44 
42 45 
42 48 
42 49 
42 50 
42 51 
42 52 
43 44 
43 46 
43 47 
43 48 
43 51 
43 52 
43 53 
43 54 
43 57 
44 45 
44 49 
44 50 
44 52 
44 53 
44 54 
45 46 
45 47 
45 49 
45 51 
45 52 
45 53 
45 54 
46 47 
46 48 
46 49 
46 51 
46 53 
46 56 
46 57 
47 50 
47 52 
47 53 
47 54 
47 56 
47 57 
48 49 
48 50 
48 51 
48 53 
48 55 
48 57 
49 50 
49 53 
49 54 
49 56 
49 57 
50 52 
50 53 
50 56 
51 52 
51 53 
51 55 
52 54 
52 57 
53 54 
53 56 
54 55 
54 56 
54 57 
55 56 
55 57 
56 57 
